truck_id, order_id, sequence_number
0,499.0,1
1,498.0,1
2,497.0,1
3,496.0,1
4,495.0,1
5,494.0,1
6,493.0,1
7,492.0,1
8,491.0,1
9,490.0,1
10,489.0,1
11,488.0,1
12,487.0,1
13,486.0,1
14,485.0,1
15,484.0,1
16,483.0,1
17,482.0,1
18,481.0,1
19,480.0,1
20,479.0,1
21,478.0,1
21,477.0,2
22,476.0,1
23,475.0,1
24,474.0,1
25,473.0,1
26,472.0,1
27,471.0,1
28,470.0,1
29,469.0,1
30,468.0,1
31,467.0,1
32,466.0,1
33,465.0,1
34,464.0,1
35,463.0,1
36,462.0,1
37,461.0,1
38,460.0,1
39,459.0,1
40,458.0,1
41,457.0,1
42,456.0,1
43,455.0,1
44,454.0,1
45,453.0,1
46,452.0,1
47,451.0,1
48,450.0,1
49,449.0,1
50,448.0,1
51,447.0,1
52,446.0,1
53,445.0,1
54,444.0,1
55,443.0,1
56,442.0,1
57,441.0,1
58,440.0,1
59,439.0,1
60,438.0,1
61,437.0,1
62,436.0,1
63,435.0,1
64,434.0,1
65,433.0,1
66,432.0,1
67,431.0,1
68,430.0,1
69,429.0,1
70,428.0,1
71,427.0,1
72,426.0,1
73,425.0,1
74,424.0,1
75,423.0,1
76,422.0,1
77,421.0,1
78,420.0,1
79,419.0,1
80,418.0,1
80,417.0,2
81,416.0,1
82,415.0,1
83,414.0,1
84,413.0,1
85,412.0,1
86,411.0,1
87,410.0,1
88,409.0,1
89,408.0,1
90,407.0,1
91,406.0,1
92,405.0,1
93,404.0,1
94,403.0,1
95,402.0,1
96,401.0,1
97,400.0,1
98,399.0,1
99,398.0,1
100,397.0,1
101,396.0,1
102,395.0,1
103,394.0,1
104,393.0,1
105,392.0,1
106,391.0,1
107,390.0,1
108,389.0,1
109,388.0,1
110,387.0,1
111,386.0,1
112,385.0,1
113,384.0,1
114,383.0,1
115,382.0,1
116,381.0,1
117,380.0,1
117,379.0,2
118,378.0,1
119,377.0,1
120,376.0,1
121,375.0,1
122,374.0,1
123,373.0,1
124,372.0,1
125,371.0,1
126,370.0,1
127,369.0,1
128,368.0,1
129,367.0,1
130,366.0,1
131,365.0,1
132,364.0,1
133,363.0,1
134,362.0,1
135,361.0,1
136,360.0,1
137,359.0,1
138,358.0,1
139,357.0,1
140,356.0,1
141,355.0,1
142,354.0,1
143,353.0,1
144,352.0,1
145,351.0,1
146,350.0,1
147,349.0,1
148,348.0,1
148,347.0,2
149,346.0,1
150,345.0,1
151,344.0,1
152,343.0,1
153,342.0,1
154,341.0,1
155,340.0,1
156,339.0,1
157,338.0,1
158,337.0,1
159,336.0,1
160,335.0,1
161,334.0,1
162,333.0,1
163,332.0,1
164,331.0,1
165,330.0,1
166,329.0,1
167,328.0,1
168,327.0,1
169,326.0,1
170,325.0,1
171,324.0,1
172,323.0,1
173,322.0,1
174,321.0,1
175,320.0,1
176,319.0,1
177,318.0,1
178,317.0,1
179,316.0,1
180,315.0,1
181,314.0,1
182,313.0,1
183,312.0,1
184,311.0,1
185,310.0,1
186,309.0,1
187,308.0,1
188,307.0,1
189,306.0,1
190,305.0,1
191,304.0,1
192,303.0,1
193,302.0,1
194,301.0,1
195,300.0,1
196,299.0,1
197,298.0,1
198,297.0,1
199,296.0,1
200,295.0,1
201,294.0,1
202,293.0,1
203,292.0,1
204,291.0,1
205,290.0,1
206,289.0,1
207,288.0,1
208,287.0,1
209,286.0,1
210,285.0,1
211,284.0,1
212,283.0,1
213,282.0,1
214,281.0,1
215,280.0,1
216,279.0,1
217,278.0,1
218,277.0,1
219,276.0,1
220,275.0,1
221,274.0,1
222,273.0,1
223,272.0,1
224,271.0,1
225,270.0,1
226,269.0,1
227,268.0,1
228,267.0,1
229,266.0,1
230,265.0,1
231,264.0,1
232,263.0,1
233,262.0,1
234,261.0,1
235,260.0,1
236,259.0,1
237,258.0,1
238,257.0,1
239,256.0,1
240,255.0,1
241,254.0,1
242,253.0,1
243,252.0,1
244,251.0,1
245,250.0,1
246,249.0,1
247,248.0,1
248,247.0,1
249,246.0,1
250,245.0,1
251,244.0,1
252,243.0,1
253,242.0,1
254,241.0,1
255,240.0,1
256,239.0,1
257,238.0,1
258,237.0,1
259,236.0,1
260,235.0,1
261,234.0,1
262,233.0,1
263,232.0,1
264,231.0,1
265,230.0,1
266,229.0,1
267,228.0,1
268,227.0,1
269,226.0,1
270,225.0,1
271,224.0,1
272,223.0,1
273,222.0,1
274,221.0,1
275,220.0,1
276,219.0,1
277,218.0,1
278,217.0,1
279,216.0,1
280,215.0,1
281,214.0,1
282,213.0,1
283,212.0,1
284,211.0,1
285,210.0,1
286,209.0,1
287,208.0,1
288,207.0,1
289,206.0,1
290,205.0,1
291,204.0,1
292,203.0,1
293,202.0,1
294,201.0,1
295,200.0,1
295,199.0,2
296,198.0,1
297,197.0,1
298,196.0,1
299,195.0,1
300,194.0,1
301,193.0,1
302,192.0,1
303,191.0,1
304,190.0,1
305,189.0,1
306,188.0,1
307,187.0,1
308,186.0,1
309,185.0,1
310,184.0,1
311,183.0,1
312,182.0,1
313,181.0,1
314,180.0,1
315,179.0,1
316,178.0,1
317,177.0,1
318,176.0,1
319,175.0,1
320,174.0,1
321,173.0,1
322,172.0,1
323,171.0,1
324,170.0,1
325,169.0,1
326,168.0,1
327,167.0,1
328,166.0,1
329,165.0,1
330,164.0,1
331,163.0,1
332,162.0,1
333,161.0,1
334,160.0,1
335,159.0,1
336,158.0,1
337,157.0,1
338,156.0,1
339,155.0,1
340,154.0,1
341,153.0,1
342,152.0,1
343,151.0,1
344,150.0,1
345,149.0,1
346,148.0,1
347,147.0,1
348,146.0,1
349,145.0,1
350,144.0,1
351,143.0,1
352,142.0,1
353,141.0,1
354,140.0,1
355,139.0,1
356,138.0,1
357,137.0,1
358,136.0,1
359,135.0,1
360,134.0,1
361,133.0,1
362,132.0,1
363,131.0,1
364,130.0,1
365,129.0,1
366,128.0,1
367,127.0,1
368,126.0,1
369,125.0,1
370,124.0,1
371,123.0,1
372,122.0,1
373,121.0,1
374,120.0,1
375,119.0,1
376,118.0,1
377,117.0,1
378,116.0,1
379,115.0,1
380,114.0,1
381,113.0,1
382,112.0,1
383,111.0,1
384,110.0,1
385,109.0,1
385,108.0,2
386,107.0,1
387,106.0,1
388,105.0,1
389,104.0,1
390,103.0,1
391,102.0,1
392,101.0,1
393,100.0,1
394,99.0,1
395,98.0,1
396,97.0,1
397,96.0,1
398,95.0,1
399,94.0,1
400,93.0,1
401,92.0,1
402,91.0,1
403,90.0,1
404,89.0,1
405,88.0,1
406,87.0,1
407,86.0,1
408,85.0,1
409,84.0,1
410,83.0,1
411,82.0,1
412,81.0,1
413,80.0,1
414,79.0,1
415,78.0,1
416,77.0,1
417,76.0,1
418,75.0,1
419,74.0,1
420,73.0,1
421,72.0,1
422,71.0,1
423,70.0,1
424,69.0,1
425,68.0,1
426,67.0,1
427,66.0,1
428,65.0,1
429,64.0,1
430,63.0,1
431,62.0,1
432,61.0,1
433,60.0,1
434,59.0,1
435,58.0,1
436,57.0,1
437,56.0,1
438,55.0,1
439,54.0,1
440,53.0,1
441,52.0,1
442,51.0,1
443,50.0,1
444,49.0,1
445,48.0,1
446,47.0,1
447,46.0,1
448,45.0,1
449,44.0,1
450,43.0,1
451,42.0,1
452,41.0,1
453,40.0,1
454,39.0,1
455,38.0,1
456,37.0,1
457,36.0,1
458,35.0,1
459,34.0,1
460,33.0,1
461,32.0,1
462,31.0,1
463,30.0,1
464,29.0,1
465,28.0,1
466,27.0,1
467,26.0,1
468,25.0,1
469,24.0,1
470,23.0,1
471,22.0,1
472,21.0,1
473,20.0,1
474,19.0,1
475,18.0,1
476,17.0,1
477,16.0,1
478,15.0,1
479,14.0,1
480,13.0,1
481,12.0,1
482,11.0,1
483,10.0,1
484,9.0,1
485,8.0,1
486,7.0,1
487,6.0,1
488,5.0,1
489,4.0,1
490,3.0,1
491,2.0,1
492,1.0,1
493,0.0,1
